DIMACS_lns/graph-1000-152.col
p edge 1000 1805
e 1 133
e 1 524
e 1 937
e 2 703
e 2 205
e 2 182
e 2 976
e 2 28
e 3 204
e 3 283
e 3 228
e 3 701
e 3 585
e 3 278
e 3 909
e 4 960
e 4 605
e 4 838
e 4 751
e 4 35
e 4 52
e 4 96
e 6 534
e 6 923
e 6 299
e 6 903
e 6 821
e 6 692
e 7 266
e 7 171
e 7 691
e 7 801
e 8 183
e 8 968
e 8 192
e 8 879
e 8 896
e 8 718
e 8 894
e 11 276
e 11 953
e 11 921
e 11 802
e 13 889
e 13 332
e 13 630
e 13 839
e 13 833
e 18 949
e 18 245
e 18 74
e 20 822
e 20 699
e 20 353
e 20 192
e 20 928
e 21 575
e 21 44
e 21 728
e 21 344
e 21 594
e 21 127
e 22 226
e 22 825
e 22 766
e 22 592
e 22 548
e 23 207
e 23 989
e 23 919
e 24 70
e 24 221
e 24 932
e 24 60
e 26 231
e 26 592
e 26 179
e 27 141
e 27 74
e 27 112
e 27 306
e 28 539
e 28 661
e 28 351
e 28 429
e 28 602
e 28 938
e 28 271
e 30 277
e 30 977
e 30 213
e 30 973
e 31 501
e 31 82
e 31 242
e 31 718
e 31 422
e 31 168
e 31 819
e 33 69
e 33 516
e 33 622
e 34 108
e 34 655
e 34 233
e 34 368
e 34 889
e 35 194
e 35 533
e 35 244
e 36 878
e 36 545
e 36 955
e 36 801
e 36 362
e 37 666
e 37 633
e 37 871
e 38 531
e 38 581
e 38 307
e 38 596
e 38 908
e 38 550
e 39 278
e 39 351
e 39 340
e 39 467
e 40 749
e 40 753
e 40 364
e 40 484
e 40 405
e 40 833
e 40 926
e 44 403
e 44 693
e 44 510
e 46 942
e 46 736
e 46 659
e 46 339
e 46 54
e 47 785
e 47 595
e 47 702
e 47 742
e 47 456
e 47 904
e 48 922
e 48 622
e 48 729
e 49 116
e 49 261
e 49 531
e 50 450
e 50 397
e 50 531
e 50 364
e 50 630
e 51 325
e 51 1000
e 51 342
e 52 174
e 52 182
e 52 74
e 52 163
e 52 291
e 52 559
e 53 272
e 53 288
e 53 276
e 54 457
e 54 787
e 54 739
e 55 760
e 55 886
e 55 921
e 56 71
e 56 103
e 56 674
e 56 855
e 56 750
e 57 221
e 57 883
e 57 936
e 57 964
e 58 581
e 58 721
e 58 962
e 59 956
e 59 231
e 59 888
e 59 625
e 59 520
e 59 893
e 59 572
e 59 740
e 60 875
e 60 995
e 61 722
e 61 814
e 61 251
e 62 718
e 62 319
e 62 444
e 62 745
e 62 730
e 64 161
e 64 856
e 64 569
e 64 227
e 65 444
e 65 277
e 65 471
e 65 512
e 65 175
e 65 284
e 66 435
e 66 390
e 66 979
e 66 766
e 68 591
e 68 177
e 68 536
e 69 952
e 69 767
e 69 942
e 69 924
e 70 383
e 70 255
e 70 249
e 70 745
e 70 293
e 70 281
e 70 844
e 71 368
e 71 629
e 71 338
e 71 537
e 73 148
e 73 567
e 73 521
e 73 607
e 73 729
e 74 898
e 74 89
e 74 908
e 74 867
e 74 90
e 74 519
e 74 349
e 74 390
e 74 459
e 74 497
e 75 340
e 75 807
e 75 594
e 75 375
e 75 149
e 75 795
e 75 829
e 75 557
e 76 623
e 76 688
e 76 458
e 76 265
e 79 928
e 79 555
e 79 770
e 80 493
e 80 836
e 80 420
e 80 511
e 80 748
e 80 495
e 82 978
e 82 873
e 82 129
e 82 195
e 82 903
e 83 118
e 83 144
e 83 873
e 83 232
e 83 749
e 83 899
e 84 143
e 84 969
e 84 422
e 84 431
e 84 985
e 84 395
e 84 263
e 84 708
e 85 647
e 85 315
e 85 238
e 85 953
e 86 510
e 86 279
e 86 625
e 86 280
e 86 777
e 86 498
e 86 901
e 86 629
e 86 236
e 86 624
e 87 312
e 87 782
e 87 793
e 87 810
e 87 959
e 87 354
e 89 935
e 89 501
e 89 803
e 89 370
e 90 96
e 90 814
e 90 445
e 90 893
e 90 781
e 91 237
e 91 493
e 91 359
e 91 308
e 91 756
e 92 760
e 92 193
e 92 720
e 94 933
e 94 137
e 94 747
e 95 409
e 95 999
e 95 224
e 96 600
e 96 951
e 97 182
e 97 511
e 97 567
e 97 835
e 98 974
e 98 719
e 98 232
e 99 852
e 99 956
e 99 763
e 99 124
e 99 923
e 99 831
e 100 197
e 100 759
e 100 585
e 100 905
e 101 982
e 101 781
e 101 854
e 101 374
e 101 793
e 101 950
e 103 527
e 103 828
e 103 204
e 103 871
e 104 875
e 104 549
e 104 530
e 104 398
e 104 118
e 104 809
e 105 399
e 105 462
e 105 374
e 105 844
e 105 797
e 105 576
e 105 257
e 107 430
e 107 510
e 107 928
e 107 605
e 107 936
e 108 778
e 108 421
e 110 582
e 110 114
e 110 835
e 110 645
e 110 759
e 111 198
e 111 935
e 111 548
e 112 508
e 112 916
e 113 363
e 113 479
e 113 872
e 113 945
e 113 263
e 113 416
e 113 462
e 114 915
e 114 514
e 114 766
e 114 578
e 116 488
e 116 979
e 117 508
e 117 861
e 117 912
e 118 189
e 118 422
e 118 451
e 118 255
e 118 264
e 118 785
e 120 590
e 120 405
e 120 152
e 120 746
e 122 537
e 122 158
e 122 381
e 123 500
e 123 469
e 123 412
e 124 838
e 124 901
e 124 185
e 125 317
e 125 501
e 125 698
e 125 879
e 125 976
e 125 518
e 126 518
e 126 592
e 126 728
e 126 856
e 127 574
e 127 689
e 127 283
e 127 972
e 129 348
e 129 207
e 129 826
e 130 172
e 130 318
e 130 187
e 131 642
e 131 723
e 131 806
e 131 408
e 131 729
e 132 557
e 132 340
e 132 597
e 132 751
e 133 759
e 133 430
e 133 720
e 133 186
e 134 904
e 134 193
e 134 721
e 134 286
e 134 542
e 135 244
e 135 883
e 135 200
e 135 410
e 135 371
e 136 410
e 136 829
e 136 539
e 136 782
e 136 486
e 137 176
e 137 925
e 137 369
e 137 331
e 137 284
e 137 866
e 138 276
e 138 354
e 138 675
e 138 733
e 138 678
e 138 569
e 139 271
e 139 994
e 139 852
e 141 334
e 141 561
e 141 878
e 141 630
e 141 845
e 141 386
e 142 466
e 142 855
e 142 458
e 142 777
e 142 370
e 143 210
e 143 585
e 143 807
e 143 298
e 144 726
e 144 768
e 145 739
e 145 421
e 145 268
e 145 596
e 145 278
e 148 313
e 148 620
e 148 530
e 148 924
e 148 398
e 148 807
e 149 645
e 149 691
e 149 882
e 152 534
e 152 366
e 152 576
e 152 299
e 158 577
e 158 637
e 159 564
e 159 519
e 159 570
e 159 869
e 159 759
e 161 400
e 161 278
e 162 570
e 162 521
e 162 642
e 162 224
e 162 390
e 163 208
e 163 830
e 164 289
e 164 515
e 164 730
e 165 311
e 165 209
e 165 880
e 165 836
e 165 429
e 165 671
e 165 493
e 166 428
e 166 304
e 166 465
e 166 957
e 166 835
e 166 508
e 168 870
e 168 922
e 168 545
e 168 626
e 168 527
e 168 729
e 168 556
e 168 257
e 168 577
e 171 605
e 171 983
e 171 907
e 171 410
e 171 528
e 171 390
e 172 375
e 172 602
e 172 384
e 172 884
e 174 690
e 174 935
e 174 284
e 174 618
e 174 190
e 174 590
e 175 576
e 175 770
e 176 889
e 176 422
e 177 593
e 177 569
e 177 338
e 177 992
e 179 865
e 179 590
e 179 377
e 180 434
e 180 538
e 180 184
e 180 611
e 180 335
e 180 316
e 180 479
e 181 537
e 181 238
e 181 922
e 181 880
e 182 507
e 182 467
e 183 518
e 183 793
e 183 410
e 184 245
e 184 508
e 184 736
e 184 703
e 185 720
e 185 722
e 185 632
e 186 616
e 186 459
e 187 283
e 187 860
e 189 219
e 189 912
e 189 632
e 189 754
e 190 730
e 190 952
e 190 602
e 190 742
e 190 515
e 190 511
e 191 500
e 191 726
e 191 637
e 192 313
e 193 289
e 193 860
e 193 515
e 193 674
e 194 570
e 194 285
e 195 924
e 195 481
e 195 558
e 195 803
e 195 588
e 196 493
e 196 335
e 196 198
e 196 931
e 197 730
e 197 898
e 197 561
e 197 620
e 197 311
e 197 558
e 198 205
e 198 399
e 200 669
e 200 524
e 200 956
e 202 994
e 202 641
e 202 909
e 203 321
e 203 729
e 203 616
e 203 445
e 203 226
e 204 249
e 204 787
e 205 618
e 205 595
e 206 343
e 206 226
e 206 331
e 206 977
e 207 343
e 207 355
e 207 671
e 207 351
e 207 947
e 207 939
e 207 338
e 208 285
e 208 868
e 209 671
e 209 663
e 210 702
e 210 918
e 211 671
e 211 218
e 211 227
e 211 943
e 211 544
e 211 289
e 211 570
e 212 781
e 212 701
e 212 961
e 212 953
e 212 928
e 212 463
e 212 984
e 213 345
e 213 720
e 215 313
e 215 543
e 215 312
e 215 377
e 215 574
e 215 910
e 215 821
e 217 909
e 217 597
e 217 287
e 218 855
e 218 361
e 218 535
e 218 934
e 219 592
e 219 818
e 220 694
e 220 789
e 220 329
e 221 255
e 221 867
e 221 971
e 221 320
e 223 838
e 223 378
e 223 807
e 223 980
e 224 683
e 224 453
e 226 269
e 226 728
e 226 307
e 227 833
e 227 747
e 228 933
e 228 245
e 229 982
e 229 535
e 229 930
e 231 650
e 232 342
e 233 999
e 233 433
e 236 994
e 236 943
e 237 518
e 237 443
e 237 419
e 237 381
e 238 699
e 238 607
e 238 674
e 239 996
e 239 742
e 239 744
e 240 631
e 240 823
e 240 702
e 240 592
e 242 409
e 242 446
e 242 275
e 242 366
e 242 823
e 242 971
e 242 642
e 242 545
e 244 899
e 245 494
e 245 662
e 248 834
e 248 637
e 248 497
e 248 929
e 249 549
e 249 322
e 249 516
e 249 691
e 251 598
e 251 483
e 255 973
e 257 612
e 257 460
e 257 683
e 257 568
e 257 451
e 257 588
e 257 271
e 257 279
e 257 788
e 258 581
e 258 308
e 258 519
e 258 964
e 258 794
e 258 823
e 258 331
e 258 935
e 261 611
e 261 720
e 261 481
e 261 650
e 262 674
e 262 865
e 262 825
e 263 787
e 263 622
e 263 865
e 263 770
e 263 989
e 264 309
e 264 737
e 264 926
e 265 727
e 265 459
e 266 658
e 266 951
e 268 582
e 268 406
e 268 719
e 269 781
e 269 611
e 269 936
e 269 321
e 271 982
e 271 719
e 271 501
e 272 502
e 272 469
e 272 777
e 274 616
e 274 490
e 274 930
e 274 822
e 274 985
e 274 918
e 275 828
e 275 521
e 276 444
e 276 318
e 276 983
e 276 747
e 277 837
e 277 716
e 277 873
e 277 507
e 277 354
e 278 497
e 278 701
e 279 528
e 280 370
e 280 964
e 280 333
e 280 602
e 281 387
e 281 942
e 281 316
e 284 951
e 284 424
e 284 611
e 284 886
e 285 606
e 285 974
e 285 601
e 285 730
e 286 899
e 286 690
e 286 569
e 286 674
e 287 985
e 287 617
e 287 512
e 288 369
e 288 467
e 288 845
e 289 593
e 289 684
e 289 796
e 289 648
e 290 719
e 290 828
e 290 584
e 290 756
e 291 308
e 291 748
e 291 893
e 291 728
e 292 937
e 292 818
e 292 793
e 293 727
e 293 904
e 293 528
e 293 612
e 293 768
e 293 348
e 294 751
e 294 649
e 294 655
e 294 557
e 294 567
e 295 302
e 295 591
e 295 451
e 296 590
e 296 597
e 296 844
e 296 622
e 297 814
e 297 881
e 297 452
e 297 541
e 298 419
e 298 512
e 298 885
e 299 698
e 299 806
e 299 957
e 299 581
e 301 595
e 301 498
e 301 572
e 301 360
e 302 560
e 302 412
e 302 505
e 303 682
e 303 590
e 303 824
e 303 559
e 303 588
e 304 785
e 304 497
e 304 861
e 304 683
e 304 742
e 304 828
e 305 902
e 305 465
e 305 479
e 306 633
e 306 739
e 306 744
e 307 547
e 307 422
e 307 511
e 308 339
e 308 433
e 308 980
e 309 458
e 309 707
e 309 349
e 311 370
e 311 515
e 311 529
e 311 319
e 312 897
e 312 678
e 312 764
e 312 921
e 313 858
e 313 415
e 313 407
e 313 978
e 314 934
e 314 939
e 314 331
e 314 502
e 314 567
e 315 875
e 315 962
e 315 829
e 315 936
e 315 878
e 316 486
e 316 429
e 316 947
e 317 859
e 317 494
e 317 957
e 317 488
e 318 809
e 318 852
e 318 879
e 318 694
e 319 351
e 319 949
e 320 839
e 320 885
e 320 579
e 321 803
e 321 452
e 321 813
e 321 742
e 321 649
e 322 634
e 322 368
e 325 500
e 325 462
e 326 878
e 326 524
e 326 492
e 326 818
e 327 444
e 327 972
e 327 778
e 329 582
e 329 488
e 329 707
e 331 441
e 331 414
e 331 647
e 332 633
e 332 388
e 333 396
e 333 856
e 334 492
e 334 816
e 334 723
e 335 775
e 337 635
e 337 982
e 337 719
e 337 868
e 337 880
e 337 722
e 338 855
e 339 915
e 339 366
e 339 866
e 339 729
e 340 794
e 340 645
e 342 684
e 342 495
e 342 689
e 343 782
e 343 527
e 343 836
e 344 882
e 344 907
e 345 468
e 345 759
e 347 738
e 347 740
e 347 937
e 348 797
e 348 699
e 349 957
e 349 894
e 349 574
e 351 984
e 351 534
e 353 986
e 353 550
e 353 620
e 354 384
e 354 741
e 354 471
e 354 572
e 354 583
e 354 607
e 354 466
e 355 912
e 355 608
e 355 819
e 355 479
e 357 358
e 357 612
e 357 826
e 357 530
e 358 756
e 358 569
e 358 522
e 358 777
e 358 450
e 359 829
e 359 975
e 360 651
e 360 518
e 360 562
e 361 685
e 361 452
e 362 688
e 362 479
e 362 483
e 362 631
e 363 919
e 363 735
e 363 481
e 364 901
e 364 494
e 364 666
e 364 463
e 364 649
e 364 701
e 364 693
e 366 973
e 368 908
e 369 533
e 370 400
e 370 547
e 371 658
e 371 904
e 371 778
e 371 662
e 372 840
e 372 750
e 372 722
e 372 617
e 373 901
e 373 416
e 373 551
e 374 708
e 374 633
e 374 494
e 374 564
e 375 650
e 377 904
e 377 884
e 378 824
e 378 872
e 378 540
e 381 846
e 381 543
e 381 627
e 381 974
e 381 806
e 382 415
e 382 590
e 382 902
e 383 810
e 383 861
e 383 557
e 384 430
e 384 991
e 386 685
e 386 802
e 387 590
e 387 859
e 387 651
e 388 516
e 388 897
e 388 952
e 390 796
e 390 744
e 395 545
e 395 589
e 395 435
e 396 664
e 396 399
e 397 730
e 397 641
e 397 735
e 397 746
e 397 781
e 397 518
e 397 972
e 398 605
e 398 723
e 399 693
e 399 572
e 400 752
e 402 689
e 402 549
e 402 727
e 403 939
e 403 590
e 403 918
e 403 612
e 404 416
e 404 461
e 404 558
e 405 990
e 405 699
e 406 445
e 406 955
e 406 628
e 407 898
e 407 434
e 407 460
e 407 931
e 408 543
e 408 866
e 409 872
e 410 867
e 410 868
e 412 645
e 412 910
e 414 666
e 414 458
e 414 775
e 414 688
e 414 722
e 414 617
e 415 726
e 416 742
e 416 986
e 419 753
e 419 992
e 420 888
e 420 493
e 420 596
e 420 506
e 421 489
e 422 608
e 422 972
e 422 937
e 422 926
e 424 918
e 424 825
e 424 688
e 428 753
e 428 799
e 428 668
e 430 775
e 430 756
e 430 984
e 430 867
e 430 898
e 431 547
e 431 960
e 431 882
e 431 988
e 433 678
e 433 436
e 434 708
e 434 688
e 435 583
e 435 618
e 436 931
e 436 972
e 436 818
e 441 801
e 441 794
e 441 934
e 441 562
e 443 664
e 443 628
e 443 945
e 444 582
e 446 730
e 446 528
e 446 796
e 450 833
e 450 739
e 451 519
e 451 529
e 451 695
e 451 716
e 451 452
e 451 990
e 453 627
e 453 486
e 453 480
e 456 585
e 456 799
e 457 974
e 457 541
e 458 999
e 458 794
e 458 671
e 458 662
e 458 521
e 459 925
e 460 555
e 460 478
e 460 503
e 461 556
e 461 864
e 461 661
e 461 867
e 462 599
e 462 669
e 462 707
e 463 702
e 463 480
e 463 558
e 463 770
e 465 508
e 465 1000
e 465 934
e 466 858
e 466 596
e 467 796
e 468 746
e 468 799
e 469 733
e 469 651
e 471 577
e 474 917
e 474 495
e 474 813
e 474 574
e 476 881
e 476 488
e 476 766
e 478 920
e 478 617
e 479 738
e 480 728
e 480 595
e 481 533
e 481 810
e 483 671
e 484 690
e 484 577
e 486 795
e 486 588
e 486 506
e 488 751
e 488 535
e 488 870
e 488 908
e 489 929
e 489 742
e 490 796
e 490 515
e 490 607
e 492 538
e 492 564
e 492 899
e 493 537
e 493 497
e 493 570
e 494 754
e 494 705
e 494 597
e 495 716
e 495 635
e 495 597
e 497 629
e 497 988
e 497 930
e 497 563
e 497 628
e 497 671
e 498 992
e 500 664
e 500 830
e 502 834
e 503 588
e 503 742
e 503 934
e 503 692
e 505 777
e 505 982
e 506 741
e 506 919
e 506 975
e 506 969
e 506 590
e 507 668
e 508 778
e 509 834
e 509 982
e 509 612
e 509 569
e 510 543
e 510 891
e 511 855
e 511 623
e 511 690
e 511 547
e 512 942
e 513 768
e 513 962
e 513 738
e 513 767
e 514 838
e 514 870
e 515 731
e 515 637
e 515 856
e 518 602
e 518 733
e 519 912
e 519 951
e 519 701
e 520 674
e 520 581
e 522 737
e 522 688
e 522 626
e 522 929
e 524 634
e 524 794
e 527 957
e 528 996
e 528 880
e 529 531
e 529 618
e 529 561
e 529 947
e 529 922
e 529 738
e 530 864
e 530 559
e 530 655
e 530 889
e 533 925
e 534 561
e 534 993
e 534 735
e 534 807
e 535 630
e 536 693
e 536 647
e 536 662
e 537 950
e 537 996
e 538 886
e 538 964
e 538 826
e 539 824
e 539 622
e 539 802
e 540 625
e 540 977
e 540 568
e 540 750
e 541 886
e 541 577
e 541 943
e 542 943
e 542 557
e 542 788
e 543 884
e 544 979
e 544 986
e 546 753
e 546 661
e 546 828
e 547 795
e 547 565
e 547 857
e 548 733
e 548 646
e 548 590
e 549 929
e 550 838
e 551 875
e 551 778
e 555 598
e 555 916
e 555 558
e 555 578
e 556 754
e 556 885
e 556 645
e 556 989
e 557 787
e 558 599
e 559 802
e 560 754
e 560 830
e 560 648
e 560 590
e 560 611
e 561 578
e 561 888
e 562 798
e 563 902
e 563 881
e 564 844
e 565 802
e 565 984
e 567 620
e 567 694
e 568 989
e 569 826
e 569 595
e 569 731
e 569 840
e 569 919
e 570 633
e 571 941
e 571 730
e 571 744
e 574 896
e 574 591
e 575 993
e 575 734
e 575 941
e 575 631
e 576 594
e 577 608
e 577 869
e 578 602
e 579 969
e 579 915
e 579 974
e 579 871
e 581 583
e 583 785
e 584 837
e 584 822
e 585 937
e 585 950
e 585 703
e 585 896
e 588 932
e 588 881
e 589 933
e 589 774
e 590 895
e 590 630
e 591 688
e 592 601
e 593 816
e 593 859
e 594 752
e 595 635
e 595 735
e 595 834
e 596 936
e 597 957
e 598 862
e 599 885
e 600 972
e 600 635
e 601 846
e 602 861
e 605 736
e 605 826
e 606 880
e 606 749
e 607 824
e 608 816
e 612 869
e 612 701
e 616 642
e 616 862
e 618 678
e 620 909
e 620 977
e 622 995
e 622 952
e 623 705
e 623 793
e 624 751
e 624 933
e 625 880
e 625 823
e 626 782
e 626 925
e 626 995
e 627 885
e 628 972
e 628 760
e 630 979
e 630 728
e 631 933
e 632 885
e 632 982
e 632 862
e 633 723
e 634 640
e 634 977
e 634 938
e 637 646
e 640 964
e 640 908
e 640 793
e 641 664
e 641 912
e 641 962
e 642 882
e 642 910
e 642 938
e 645 951
e 645 989
e 645 688
e 646 862
e 648 894
e 648 971
e 648 867
e 648 675
e 650 803
e 650 974
e 650 988
e 650 912
e 650 775
e 651 920
e 651 951
e 652 697
e 652 935
e 652 922
e 654 739
e 654 720
e 654 821
e 654 933
e 655 682
e 658 937
e 658 858
e 658 884
e 659 661
e 659 896
e 661 727
e 663 905
e 663 745
e 664 879
e 666 768
e 668 788
e 668 925
e 669 977
e 674 980
e 675 994
e 675 688
e 678 759
e 678 788
e 678 750
e 682 891
e 682 916
e 682 781
e 683 697
e 683 852
e 683 706
e 684 960
e 684 956
e 684 830
e 685 836
e 685 914
e 688 942
e 689 932
e 689 834
e 690 760
e 692 959
e 693 836
e 694 823
e 695 1000
e 695 860
e 697 834
e 697 759
e 697 884
e 698 907
e 698 819
e 698 968
e 698 920
e 701 702
e 702 737
e 702 814
e 702 869
e 705 916
e 706 806
e 706 822
e 707 816
e 707 933
e 708 729
e 708 961
e 716 827
e 718 722
e 718 877
e 719 877
e 719 778
e 721 854
e 721 904
e 721 894
e 722 922
e 726 790
e 726 917
e 726 877
e 726 787
e 727 934
e 727 752
e 727 734
e 727 957
e 728 993
e 731 839
e 731 939
e 733 790
e 734 972
e 737 830
e 740 821
e 741 763
e 742 803
e 744 831
e 744 864
e 746 953
e 746 926
e 748 813
e 748 905
e 749 977
e 749 943
e 753 826
e 756 976
e 759 846
e 760 768
e 763 929
e 764 831
e 764 867
e 767 903
e 767 986
e 768 810
e 774 878
e 774 897
e 778 878
e 778 821
e 781 991
e 782 962
e 785 982
e 787 905
e 789 828
e 789 950
e 790 888
e 795 891
e 796 880
e 796 837
e 797 864
e 798 839
e 798 921
e 801 935
e 801 962
e 801 827
e 802 918
e 803 975
e 806 883
e 809 937
e 814 845
e 814 925
e 816 821
e 818 953
e 819 884
e 821 931
e 821 901
e 824 925
e 826 978
e 827 922
e 828 973
e 830 835
e 834 930
e 835 845
e 835 953
e 835 883
e 837 838
e 838 995
e 839 985
e 839 929
e 839 974
e 839 955
e 840 928
e 844 921
e 845 969
e 854 886
e 854 983
e 855 929
e 855 857
e 856 953
e 857 952
e 861 975
e 864 952
e 864 867
e 866 930
e 867 938
e 867 905
e 867 881
e 868 990
e 869 949
e 869 877
e 869 938
e 871 899
e 872 905
e 873 914
e 875 895
e 878 922
e 879 925
e 885 990
e 886 980
e 888 901
e 888 990
e 891 964
e 893 995
e 895 928
e 895 996
e 895 974
e 897 990
e 904 991
e 904 1000
e 909 914
e 909 935
e 912 945
e 914 917
e 916 974
e 916 942
e 922 991
e 923 935
e 929 935
e 930 992
e 933 984
e 941 975
e 943 968
e 952 964
e 959 990
e 961 969
e 976 979
